Set parameter TokenServer to value "opt-license.discovery.wisc.edu"
Set parameter TimeLimit to value 600
Gurobi Optimizer version 9.5.1 build v9.5.1rc2 (linux64)
Thread count: 40 physical cores, 80 logical processors, using up to 32 threads
Optimize a model with 676411 rows, 1210300 columns and 3888222 nonzeros
Model fingerprint: 0x4d6bbd6c
Variable types: 1205400 continuous, 4900 integer (4900 binary)
Coefficient statistics:
  Matrix range     [1e+00, 3e+03]
  Objective range  [1e+00, 1e+01]
  Bounds range     [1e+00, 1e+00]
  RHS range        [1e+00, 4e+00]
Presolve removed 23668 rows and 71730 columns (presolve time = 5s) ...
Presolve removed 23668 rows and 71730 columns (presolve time = 10s) ...
Presolve removed 23668 rows and 71730 columns (presolve time = 16s) ...
Presolve removed 23668 rows and 71730 columns (presolve time = 35s) ...
Presolve removed 23668 rows and 71730 columns (presolve time = 35s) ...
Presolve removed 23668 rows and 71730 columns
Presolve time: 35.77s
Presolved: 652743 rows, 1138570 columns, 3761938 nonzeros
Variable types: 1133670 continuous, 4900 integer (4900 binary)
Found heuristic solution: objective 260.9949280

Deterministic concurrent LP optimizer: primal simplex, dual simplex, and barrier
Showing barrier log only...

Root barrier log...

Elapsed ordering time = 6s
Elapsed ordering time = 10s
Ordering time: 12.75s

Barrier performed 0 iterations in 75.57 seconds (24.04 work units)
Barrier solve interrupted - model solved by another algorithm

Concurrent spin time: 9.91s (can be avoided by choosing Method=3)

Solved with dual simplex

Root relaxation: objective 1.147737e+02, 7427 iterations, 21.68 seconds (4.81 work units)

    Nodes    |    Current Node    |     Objective Bounds      |     Work
 Expl Unexpl |  Obj  Depth IntInf | Incumbent    BestBd   Gap | It/Node Time

     0     0  114.77366    0   42  260.99493  114.77366  56.0%     -   86s
H    0     0                     236.1514101  114.77366  51.4%     -   95s
     0     0  114.77366    0   45  236.15141  114.77366  51.4%     -  110s
H    0     0                     115.5886947  114.77366  0.71%     -  117s
     0     0  114.81020    0  210  115.58869  114.81020  0.67%     -  135s
     0     0  114.81020    0   25  115.58869  114.81020  0.67%     -  166s
H    0     0                     115.4396092  114.81020  0.55%     -  166s
     0     0  115.16279    0   83  115.43961  115.16279  0.24%     -  168s
     0     0  115.16279    0    5  115.43961  115.16279  0.24%     -  170s
     0     0  115.23090    0   29  115.43961  115.23090  0.18%     -  170s
     0     0  115.31832    0   23  115.43961  115.31832  0.11%     -  170s

Explored 1 nodes (10637 simplex iterations) in 171.18 seconds (60.05 work units)
Thread count was 32 (of 80 available processors)

Solution count 5: 115.44 115.44 115.589 ... 260.995

Optimal solution found (tolerance 1.00e-04)
Best objective 1.154396091977e+02, best bound 1.154396091977e+02, gap 0.0000%
